c read Graph
c width = 2
c time = 15 ms
c width = 2
c time = 4797 ms
s td 12 3 14
b 1 1 2 9
b 2 2 3 10
b 3 3 4 11
b 4 4 5 12
b 5 5 6 13
b 6 6 7 14
b 7 6 13 14
b 8 5 12 13
b 9 4 11 12
b 10 3 10 11
b 11 2 9 10
b 12 1 8 9
1 12
1 11
2 11
2 10
3 10
3 9
4 9
4 8
5 8
5 7
6 7
